p cnf 11 35
-11 10 -6 0
11 10 5 0
11 9 -1 0
11 -9 1 0
-11 -9 1 0
-11 8 6 0
11 8 3 0
-11 4 1 0
10 -9 1 0
10 9 1 0
-10 8 -5 0
-10 -6 -3 0
-10 -6 3 0
10 5 4 0
-10 -5 3 0
-10 -5 -2 0
-9 -8 3 0
-9 -7 -2 0
-9 7 -1 0
-9 6 -4 0
-9 5 -3 0
9 4 -3 0
-9 -4 2 0
-8 -7 6 0
-8 -7 -2 0
8 2 1 0
7 6 3 0
7 4 -3 0
-7 4 1 0
6 4 -2 0
6 3 -2 0
-6 3 1 0
6 2 -1 0
-5 4 -1 0
-5 4 1 0
